c Generated map
c Size: 9 * 9, weights in range: 1 to 10, walls: True, with ratio 0.1
c dim 1 of 8
c
p sp 81 114
c graph contains 81 nodes and 114 arcs
c
a 1 10 5
a 10 1 5
a 1 2 2
a 2 1 2
a 2 11 5
a 11 2 5
a 2 3 7
a 3 2 7
a 3 12 5
a 12 3 5
a 3 4 9
a 4 3 9
a 4 13 4
a 13 4 4
a 4 5 10
a 5 4 10
a 5 6 7
a 6 5 7
a 6 15 5
a 15 6 5
a 6 7 6
a 7 6 6
a 7 16 8
a 16 7 8
a 7 8 2
a 8 7 2
a 8 9 3
a 9 8 3
a 9 18 9
a 18 9 9
a 10 19 10
a 19 10 10
a 10 11 10
a 11 10 10
a 11 12 5
a 12 11 5
a 12 21 7
a 21 12 7
a 12 13 3
a 13 12 3
a 13 22 3
a 22 13 3
a 15 24 10
a 24 15 10
a 15 16 4
a 16 15 4
a 18 27 2
a 27 18 2
a 19 28 4
a 28 19 4
a 21 30 2
a 30 21 2
a 21 22 4
a 22 21 4
a 22 31 8
a 31 22 8
a 24 33 6
a 33 24 6
a 26 35 10
a 35 26 10
a 26 27 1
a 27 26 1
a 27 36 2
a 36 27 2
a 28 37 8
a 37 28 8
a 28 29 2
a 29 28 2
a 29 38 9
a 38 29 9
a 29 30 4
a 30 29 4
a 30 39 1
a 39 30 1
a 30 31 8
a 31 30 8
a 31 40 5
a 40 31 5
a 31 32 8
a 32 31 8
a 32 41 10
a 41 32 10
a 32 33 6
a 33 32 6
a 33 42 6
a 42 33 6
a 33 34 8
a 34 33 8
a 34 35 5
a 35 34 5
a 35 44 8
a 44 35 8
a 35 36 8
a 36 35 8
a 36 45 5
a 45 36 5
a 37 46 9
a 46 37 9
a 37 38 3
a 38 37 3
a 38 47 1
a 47 38 1
a 38 39 6
a 39 38 6
a 39 48 4
a 48 39 4
a 39 40 5
a 40 39 5
a 40 49 10
a 49 40 10
a 40 41 5
a 41 40 5
a 41 50 9
a 50 41 9
a 41 42 2
a 42 41 2
a 42 51 3
a 51 42 3
a 44 53 1
a 53 44 1
a 44 45 7
a 45 44 7
a 45 54 4
a 54 45 4
a 46 47 3
a 47 46 3
a 47 56 6
a 56 47 6
a 47 48 7
a 48 47 7
a 48 57 5
a 57 48 5
a 48 49 1
a 49 48 1
a 49 58 5
a 58 49 5
a 49 50 7
a 50 49 7
a 50 59 8
a 59 50 8
a 50 51 4
a 51 50 4
a 51 60 7
a 60 51 7
a 51 52 9
a 52 51 9
a 52 61 2
a 61 52 2
a 52 53 3
a 53 52 3
a 53 62 2
a 62 53 2
a 53 54 10
a 54 53 10
a 54 63 1
a 63 54 1
a 56 65 1
a 65 56 1
a 56 57 4
a 57 56 4
a 57 66 10
a 66 57 10
a 57 58 8
a 58 57 8
a 58 67 10
a 67 58 10
a 58 59 8
a 59 58 8
a 59 68 8
a 68 59 8
a 59 60 7
a 60 59 7
a 60 69 5
a 69 60 5
a 60 61 4
a 61 60 4
a 61 62 2
a 62 61 2
a 62 71 6
a 71 62 6
a 62 63 6
a 63 62 6
a 63 72 1
a 72 63 1
a 64 73 7
a 73 64 7
a 64 65 9
a 65 64 9
a 65 74 2
a 74 65 2
a 65 66 2
a 66 65 2
a 66 75 4
a 75 66 4
a 66 67 9
a 67 66 9
a 67 76 2
a 76 67 2
a 67 68 8
a 68 67 8
a 68 77 5
a 77 68 5
a 68 69 2
a 69 68 2
a 69 78 8
a 78 69 8
a 71 80 9
a 80 71 9
a 71 72 4
a 72 71 4
a 72 81 4
a 81 72 4
a 73 74 6
a 74 73 6
a 74 75 6
a 75 74 6
a 75 76 2
a 76 75 2
a 76 77 4
a 77 76 4
a 77 78 9
a 78 77 9
a 78 79 4
a 79 78 4
a 79 80 1
a 80 79 1
a 80 81 2
a 81 80 2
